p cnf 120 427
-4 2 0
-4 -3 0
-2 3 4 0
1 -4 -5 0
-1 4 -5 0
1 4 5 0
-1 -4 5 0
7 -4 0
7 6 0
4 -6 -7 0
8 -5 0
8 -7 0
5 7 -8 0
11 9 0
11 -10 0
-9 10 -11 0
8 11 -12 0
-8 -11 -12 0
8 -11 12 0
-8 11 12 0
4 13 -14 0
-4 -13 -14 0
4 -13 14 0
-4 13 14 0
-16 -2 0
-16 10 0
2 -10 16 0
-16 -7 -17 0
16 7 -17 0
-16 7 17 0
16 -7 17 0
18 -1 0
18 -17 0
1 17 -18 0
19 15 0
19 -18 0
-15 18 -19 0
20 -6 0
20 -19 0
6 19 -20 0
-14 20 -21 0
14 -20 -21 0
-14 -20 21 0
14 20 21 0
23 -21 0
23 -22 0
21 22 -23 0
-24 23 0
-24 -13 0
-23 13 24 0
-25 22 0
-25 -3 0
-22 3 25 0
25 7 -26 0
-25 -7 -26 0
25 -7 26 0
-25 7 26 0
27 26 0
27 -18 0
-26 18 -27 0
-28 27 0
-28 6 0
-27 -6 28 0
28 29 -30 0
-28 -29 -30 0
28 -29 30 0
-28 29 30 0
-31 24 0
-31 -30 0
-24 30 31 0
-32 -19 0
-32 -10 0
19 10 32 0
-4 33 -34 0
4 -33 -34 0
-4 -33 34 0
4 33 34 0
-34 -10 -35 0
34 10 -35 0
-34 10 35 0
34 -10 35 0
-36 -32 0
-36 -35 0
32 35 36 0
31 36 -37 0
-31 -36 -37 0
31 -36 37 0
-31 36 37 0
38 12 0
38 -37 0
-12 37 -38 0
39 -19 0
39 29 0
19 -29 -39 0
-9 3 -40 0
9 -3 -40 0
-9 -3 40 0
9 3 40 0
-42 -41 0
-42 -9 0
41 9 42 0
-43 -40 0
-43 -42 0
40 42 43 0
-44 26 0
-44 43 0
-26 -43 44 0
45 -39 0
45 44 0
39 -44 -45 0
33 21 -46 0
-33 -21 -46 0
33 -21 46 0
-33 21 46 0
47 -45 0
47 -46 0
45 46 -47 0
-13 15 -49 0
13 -15 -49 0
-13 -15 49 0
13 15 49 0
-50 -48 0
-50 -49 0
48 49 50 0
-22 -9 -51 0
22 9 -51 0
-22 9 51 0
22 -9 51 0
-52 -50 0
-52 -51 0
50 51 52 0
53 16 0
53 -22 0
-16 22 -53 0
-3 -14 -54 0
3 14 -54 0
-3 14 54 0
3 -14 54 0
-54 -21 -55 0
54 21 -55 0
-54 21 55 0
54 -21 55 0
56 -53 0
56 55 0
53 -55 -56 0
39 -4 -57 0
-39 4 -57 0
39 4 57 0
-39 -4 57 0
-58 56 0
-58 -57 0
-56 57 58 0
59 -40 0
59 19 0
40 -19 -59 0
-41 -3 -60 0
41 3 -60 0
-41 3 60 0
41 -3 60 0
61 59 0
61 60 0
-59 -60 -61 0
-62 -2 0
-62 -61 0
2 61 62 0
63 -58 0
63 -62 0
58 62 -63 0
-52 63 -64 0
52 -63 -64 0
-52 -63 64 0
52 63 64 0
65 -51 0
65 -13 0
51 13 -65 0
66 48 0
66 -48 0
67 26 0
67 66 0
-26 -66 -67 0
68 -29 0
68 -67 0
29 67 -68 0
69 -49 0
69 68 0
49 -68 -69 0
-70 -65 0
-70 -69 0
65 69 70 0
-34 70 -71 0
34 -70 -71 0
-34 -70 71 0
34 70 71 0
72 -27 0
72 71 0
27 -71 -72 0
73 4 0
73 -72 0
-4 72 -73 0
61 27 -74 0
-61 -27 -74 0
61 -27 74 0
-61 27 74 0
-73 -74 -75 0
73 74 -75 0
-73 74 75 0
73 -74 75 0
-76 64 0
-76 75 0
-64 -75 76 0
-14 5 -77 0
14 -5 -77 0
-14 -5 77 0
14 5 77 0
78 25 0
78 35 0
-25 -35 -78 0
79 77 0
79 -78 0
-77 78 -79 0
80 65 0
80 -21 0
-65 21 -80 0
-79 80 -81 0
79 -80 -81 0
-79 -80 81 0
79 80 81 0
-82 -51 0
-82 -29 0
51 29 82 0
-83 -42 0
-83 -25 0
42 25 83 0
-84 82 0
-84 83 0
-82 -83 84 0
85 81 0
85 -84 0
-81 84 -85 0
-22 -86 -87 0
22 86 -87 0
-22 86 87 0
22 -86 87 0
-88 85 0
-88 87 0
-85 -87 88 0
89 76 0
89 -88 0
-76 88 -89 0
90 -47 0
90 -89 0
47 89 -90 0
-33 49 -91 0
33 -49 -91 0
-33 -49 91 0
33 49 91 0
-92 5 0
-92 6 0
-5 -6 92 0
93 77 0
93 -35 0
-77 35 -93 0
-94 -92 0
-94 93 0
92 -93 94 0
-95 -25 0
-95 -14 0
25 14 95 0
5 95 -96 0
-5 -95 -96 0
5 -95 96 0
-5 95 96 0
-97 96 0
-97 14 0
-96 -14 97 0
98 94 0
98 -97 0
-94 97 -98 0
99 -26 0
99 22 0
26 -22 -99 0
100 -28 0
100 53 0
28 -53 -100 0
101 40 0
101 -78 0
-40 78 -101 0
-100 101 -102 0
100 -101 -102 0
-100 -101 102 0
100 101 102 0
103 -55 0
103 29 0
55 -29 -103 0
-14 103 -104 0
14 -103 -104 0
-14 -103 104 0
14 103 104 0
105 102 0
105 104 0
-102 -104 -105 0
99 -105 -106 0
-99 105 -106 0
99 105 106 0
-99 -105 106 0
107 98 0
107 106 0
-98 -106 -107 0
-108 91 0
-108 107 0
-91 -107 108 0
27 32 -109 0
-27 -32 -109 0
27 -32 109 0
-27 32 109 0
2 -26 -110 0
-2 26 -110 0
2 26 110 0
-2 -26 110 0
-43 -110 -111 0
43 110 -111 0
-43 110 111 0
43 -110 111 0
-109 -111 -112 0
109 111 -112 0
-109 111 112 0
109 -111 112 0
-108 -112 -113 0
108 112 -113 0
-108 112 113 0
108 -112 113 0
114 -33 0
114 -48 0
33 48 -114 0
-115 -17 0
-115 114 0
17 -114 115 0
116 53 0
116 -61 0
-53 61 -116 0
-115 -116 -117 0
115 116 -117 0
-115 116 117 0
115 -116 117 0
-113 117 -118 0
113 -117 -118 0
-113 -117 118 0
113 117 118 0
-119 -90 0
-119 -118 0
90 118 119 0
38 119 -120 0
-38 -119 -120 0
38 -119 120 0
-38 119 120 0
107 -101 -16 28 63 0
39 -57 118 0
112 -45 0
119 58 90 0
-59 84 -88 0
53 -27 117 -5 92 -57 0
-31 -37 25 -77 -21 97 0
-37 102 55 0
7 49 0
-43 47 88 -61 -108 0
105 -37 0
73 -119 0
-39 49 31 0
105 -10 111 104 0
27 39 12 89 0
-117 45 74 17 98 82 0
-29 -119 -47 -56 0
-55 -77 -53 27 -10 -42 0
-35 22 0
-119 -24 95 -42 27 0
-3 89 -93 18 63 -67 0
2 -109 106 71 40 0
18 26 -59 -16 6 0
93 42 91 0
60 42 -43 -119 30 -89 0
-97 -33 -9 -5 0
-91 -44 114 22 52 -49 0
111 -66 14 107 83 97 0
76 6 59 -87 0
-48 70 -90 4 81 0
97 66 0
51 22 13 0
109 -82 0
106 -54 44 0
-7 -6 20 82 -81 0
-64 -87 78 -40 -100 73 0
46 -8 103 106 89 0
80 23 12 0
55 -76 59 79 -107 0
100 -22 6 -78 -34 0
45 -80 18 0
-81 51 -87 60 0
88 -90 0
64 108 14 31 34 115 0
-13 -2 108 0
-35 -115 75 -20 0
-102 83 -50 -2 0
-79 -60 0
120 -84 90 0
55 9 -114 -105 -36 0
-33 66 89 107 0
73 -112 0
-3 54 83 0
-64 -55 -82 -50 0
88 85 94 75 0
13 -60 -91 0
-109 -52 0
-96 16 28 21 0
-104 55 -75 0
-49 17 0
74 -110 0
-26 106 34 -4 0
-20 49 -79 8 0
-100 -46 -57 27 19 0
-21 13 -33 -116 12 0
-65 -115 -69 -26 -42 -32 0
10 98 0
115 58 -81 30 0
99 -114 66 35 58 0
-75 104 0
51 -35 0
120 0
